(set-logic QF_S)
(declare-fun var0 () String)
(declare-fun var1 () String)
(declare-fun var2 () String)
(declare-fun var3 () String)
(declare-fun var4 () String)
(declare-fun var5 () String)
(declare-fun var6 () String)
(declare-fun var7 () String)
(declare-fun var8 () String)
(declare-fun var9 () String)
(declare-fun var10 () String)
(declare-fun var11 () String)
(declare-fun var12 () String)
(declare-fun var13 () String)
(declare-fun var14 () String)
(declare-fun var15 () String)
(declare-fun var16 () String)
(declare-fun var17 () String)
(declare-fun var18 () String)
(declare-fun var19 () String)
(declare-fun var20 () String)
(declare-fun var21 () String)
(declare-fun var22 () String)
(declare-fun var23 () String)
(declare-fun var24 () String)
(declare-fun var25 () String)
(declare-fun var26 () String)
(declare-fun var27 () String)
(declare-fun var28 () String)
(declare-fun var29 () String)
(declare-fun var30 () String)
(declare-fun var31 () String)
(declare-fun var32 () String)
(declare-fun var33 () String)
(declare-fun var34 () String)
(declare-fun var35 () String)
(declare-fun var36 () String)
(declare-fun var37 () String)
(declare-fun var38 () String)
(declare-fun var39 () String)
(declare-fun var40 () String)
(declare-fun var41 () String)
(declare-fun var42 () String)
(declare-fun var43 () String)
(declare-fun var44 () String)
(declare-fun var45 () String)
(declare-fun var46 () String)
(declare-fun var47 () String)
(declare-fun var48 () String)
(declare-fun var49 () String)
(declare-fun var50 () String)
(declare-fun var51 () String)
(declare-fun var52 () String)
(declare-fun var53 () String)
(declare-fun var54 () String)
(declare-fun var55 () String)
(declare-fun var56 () String)
(declare-fun var57 () String)
(declare-fun var58 () String)
(declare-fun var59 () String)
(declare-fun var60 () String)
(assert (= var0 (str.++ var1 var2)))
(assert (= var2 (str.++ var3 var4)))
(assert (= var4 (str.++ var5 var6)))
(assert (= var6 (str.++ var7 var8)))
(assert (= var8 (str.++ var9 var10)))
(assert (= var10 (str.++ var11 var12)))
(assert (= var12 (str.++ var13 var14)))
(assert (= var14 (str.++ var15 var16)))
(assert (= var16 (str.++ var17 var18)))
(assert (= var18 (str.++ var19 var20)))
(assert (= var20 (str.++ var21 var22)))
(assert (= var22 (str.++ var23 var24)))
(assert (= var24 (str.++ var25 var26)))
(assert (= var26 (str.++ var27 var28)))
(assert (= var28 (str.++ var29 var30)))
(assert (= var30 (str.++ var31 var32)))
(assert (= var32 (str.++ var33 var34)))
(assert (= var34 (str.++ var35 var36)))
(assert (= var36 (str.++ var37 var38)))
(assert (= var38 (str.++ var39 var40)))
(assert (= var40 (str.++ var41 var42)))
(assert (= var42 (str.++ var43 var44)))
(assert (= var44 (str.++ var45 var46)))
(assert (= var46 (str.++ var47 var48)))
(assert (= var48 (str.++ var49 var50)))
(assert (= var50 (str.++ var51 var52)))
(assert (= var52 (str.++ var53 var54)))
(assert (= var54 (str.++ var55 var56)))
(assert (= var56 (str.++ var57 var58)))
(assert (= var58 (str.++ var59 var60)))
(assert (= var0 "solution"))
(assert (= "]" (str.at var1 759)))
(assert (= "." (str.at var3 891)))
(assert (= "*" (str.at var26 432)))
(assert (= "y" (str.at var25 87)))
(assert (= "b" (str.at var47 127)))
(assert (= "x" (str.at var52 690)))
(assert (= "W" (str.at var28 90)))
(assert (= "," (str.at var27 20)))
(assert (= "V" (str.at var36 801)))
(assert (= "%" (str.at var29 524)))
(assert (= "H" (str.at var57 743)))
(assert (= "3" (str.at var60 576)))
(assert (= "e" (str.at var20 381)))
(assert (= "{" (str.at var6 229)))
(assert (= ";" (str.at var47 611)))
(assert (= "2" (str.at var4 32)))
(assert (= "i" (str.at var30 450)))
(assert (= "2" (str.at var47 727)))
(assert (= ">" (str.at var53 726)))
(assert (= "o" (str.at var9 242)))
(assert (= "c" (str.at var13 246)))
(assert (= "}" (str.at var9 183)))
(assert (= "3" (str.at var30 544)))
(assert (= "K" (str.at var49 487)))
(assert (= "q" (str.at var22 454)))
(assert (= "'" (str.at var29 682)))
(assert (= "B" (str.at var33 114)))
(assert (= "[" (str.at var18 5)))
(assert (= "1" (str.at var38 127)))
(assert (= "r" (str.at var27 620)))
(assert (= "%" (str.at var47 944)))
(assert (= "u" (str.at var49 35)))
(assert (= "0" (str.at var58 859)))
(assert (= ";" (str.at var58 75)))
(assert (= "G" (str.at var49 74)))
(assert (= "7" (str.at var3 190)))
(assert (= "y" (str.at var42 29)))
(assert (= "D" (str.at var19 343)))
(assert (= "I" (str.at var22 603)))
(assert (= "1" (str.at var48 752)))
(assert (= ";" (str.at var56 566)))
(assert (= "D" (str.at var30 789)))
(assert (= "E" (str.at var30 70)))
(assert (= "D" (str.at var54 195)))
(assert (= "{" (str.at var30 113)))
(assert (= "," (str.at var12 10)))
(assert (= "x" (str.at var58 509)))
(assert (= "$" (str.at var50 522)))
(assert (= "&" (str.at var4 143)))
(assert (= ">" (str.at var38 486)))
(assert (= "}" (str.at var60 670)))
(assert (= "'" (str.at var31 325)))
(assert (= "$" (str.at var19 201)))
(assert (= "g" (str.at var16 331)))
(assert (= "^" (str.at var39 820)))
(assert (= "y" (str.at var35 460)))
(assert (= "p" (str.at var36 803)))
(assert (= "V" (str.at var32 430)))
(assert (= "`" (str.at var14 649)))
(assert (= "w" (str.at var37 814)))
(assert (= "D" (str.at var20 505)))
(assert (= "4" (str.at var45 456)))
(assert (= "l" (str.at var1 431)))
(assert (= "P" (str.at var21 688)))
(assert (= "3" (str.at var22 567)))
(assert (= "/" (str.at var60 574)))
(assert (= "K" (str.at var13 658)))
(assert (= "B" (str.at var17 784)))
(assert (= "+" (str.at var14 8)))
(assert (= ":" (str.at var13 101)))
(assert (= "T" (str.at var36 165)))
(assert (= "K" (str.at var32 462)))
(assert (= "0" (str.at var36 908)))
(assert (= "T" (str.at var23 730)))
(assert (= "S" (str.at var50 532)))
(assert (= "b" (str.at var54 290)))
(assert (= "p" (str.at var6 813)))
(assert (= "/" (str.at var9 616)))
(assert (= "." (str.at var40 400)))
(assert (= "L" (str.at var13 76)))
(assert (= "l" (str.at var41 975)))
(assert (= "s" (str.at var45 114)))
(assert (= "x" (str.at var23 821)))
(assert (= "+" (str.at var33 600)))
(assert (= "M" (str.at var54 522)))
(assert (= "Q" (str.at var22 619)))
(assert (= "C" (str.at var18 404)))
(assert (= "Q" (str.at var33 382)))
(assert (= "b" (str.at var42 657)))
(assert (= "O" (str.at var45 393)))
(assert (= "e" (str.at var56 26)))
(assert (= ":" (str.at var38 210)))
(assert (= "j" (str.at var2 670)))
(assert (= "z" (str.at var32 757)))
(assert (= "%" (str.at var13 411)))
(assert (= "K" (str.at var41 56)))
(assert (= "." (str.at var40 498)))
(assert (= "5" (str.at var22 903)))
(assert (= "H" (str.at var20 463)))
(assert (= "Q" (str.at var47 420)))
(assert (= "j" (str.at var52 852)))
(assert (= "D" (str.at var29 3)))
(assert (= "H" (str.at var55 378)))
(assert (= "C" (str.at var41 680)))
(assert (= "y" (str.at var51 185)))
(assert (= "m" (str.at var30 714)))
(assert (= "S" (str.at var19 92)))
(assert (= "`" (str.at var39 762)))
(assert (= "d" (str.at var51 476)))
(assert (= "M" (str.at var50 439)))
(assert (= "l" (str.at var4 672)))
(assert (= "u" (str.at var31 381)))
(assert (= "v" (str.at var41 582)))
(assert (= "o" (str.at var49 580)))
(assert (= "x" (str.at var26 504)))
(assert (= "*" (str.at var6 879)))
(assert (= "@" (str.at var60 919)))
(assert (= "m" (str.at var22 944)))
(assert (= "S" (str.at var60 901)))
(assert (= "v" (str.at var7 820)))
(assert (= "Y" (str.at var37 77)))
(assert (= "E" (str.at var13 891)))
(assert (= "r" (str.at var7 911)))
(assert (= "6" (str.at var27 389)))
(assert (= "I" (str.at var18 848)))
(assert (= "1" (str.at var47 822)))
(assert (= "o" (str.at var2 994)))
(assert (= ")" (str.at var55 574)))
(assert (= "S" (str.at var31 877)))
(assert (= "z" (str.at var45 414)))
(assert (= "E" (str.at var12 207)))
(assert (= "." (str.at var18 46)))
(assert (= "j" (str.at var40 271)))
(assert (= "A" (str.at var14 797)))
(assert (= "," (str.at var50 438)))
(assert (= "m" (str.at var23 967)))
(assert (= "j" (str.at var10 27)))
(assert (= "U" (str.at var49 109)))
(assert (= "K" (str.at var41 571)))
(assert (= "t" (str.at var16 364)))
(assert (= "=" (str.at var16 71)))
(assert (= "1" (str.at var11 387)))
(assert (= "+" (str.at var46 788)))
(assert (= "g" (str.at var45 530)))
(assert (= "O" (str.at var18 32)))
(assert (= "j" (str.at var11 73)))
(assert (= "2" (str.at var8 902)))
(assert (= "w" (str.at var36 348)))
(assert (= "{" (str.at var3 160)))
(assert (= "U" (str.at var32 510)))
(assert (= "L" (str.at var33 471)))
(assert (= "@" (str.at var33 495)))
(assert (= "s" (str.at var19 4)))
(assert (= ":" (str.at var11 895)))
(assert (= "n" (str.at var52 472)))
(assert (= "%" (str.at var29 785)))
(assert (= "-" (str.at var5 854)))
(assert (= "w" (str.at var22 220)))
(assert (= "b" (str.at var35 854)))
(assert (= "K" (str.at var19 894)))
(assert (= "H" (str.at var36 135)))
(assert (= "#" (str.at var6 198)))
(assert (= "\\" (str.at var50 711)))
(assert (= "q" (str.at var55 515)))
(assert (= "\\" (str.at var12 497)))
(assert (= "J" (str.at var52 473)))
(assert (= "h" (str.at var22 245)))
(assert (= "u" (str.at var8 976)))
(assert (= "z" (str.at var26 984)))
(assert (= "J" (str.at var38 256)))
(assert (= "h" (str.at var50 954)))
(assert (= "e" (str.at var26 326)))
(assert (= "X" (str.at var28 290)))
(assert (= "/" (str.at var56 562)))
(assert (= "1" (str.at var57 487)))
(assert (= "a" (str.at var28 134)))
(assert (= "|" (str.at var29 825)))
(assert (= "$" (str.at var7 415)))
(assert (= "i" (str.at var16 939)))
(assert (= "w" (str.at var38 495)))
(assert (= "O" (str.at var36 267)))
(assert (= "p" (str.at var54 523)))
(assert (= "T" (str.at var16 431)))
(assert (= "2" (str.at var55 610)))
(assert (= "3" (str.at var55 874)))
(assert (= "(" (str.at var8 749)))
(assert (= "8" (str.at var36 343)))
(assert (= "9" (str.at var36 477)))
(assert (= "v" (str.at var18 867)))
(assert (= "o" (str.at var58 280)))
(assert (= "G" (str.at var49 822)))
(assert (= "=" (str.at var39 878)))
(assert (= "7" (str.at var54 156)))
(assert (= "+" (str.at var50 58)))
(assert (= "-" (str.at var59 705)))
(assert (= "q" (str.at var7 100)))
(assert (= "q" (str.at var59 547)))
(assert (= "R" (str.at var59 273)))
(assert (= "]" (str.at var35 983)))
(assert (= "z" (str.at var4 418)))
(assert (= "J" (str.at var24 532)))
(assert (= "5" (str.at var42 413)))
(assert (= "_" (str.at var38 870)))
(assert (= "B" (str.at var37 385)))
(assert (= "x" (str.at var21 732)))
(assert (= "C" (str.at var38 230)))
(assert (= "W" (str.at var57 553)))
(assert (= "L" (str.at var44 666)))
(assert (= "H" (str.at var27 62)))
(assert (= "N" (str.at var59 528)))
(assert (= "i" (str.at var33 738)))
(assert (= "r" (str.at var60 391)))
(assert (= "x" (str.at var27 758)))
(assert (= "C" (str.at var0 70)))
(assert (= "[" (str.at var34 665)))
(assert (= """" (str.at var19 229)))
(assert (= "L" (str.at var11 240)))
(assert (= "Q" (str.at var16 776)))
(assert (= "~" (str.at var5 228)))
(assert (= "d" (str.at var47 900)))
(assert (= "c" (str.at var50 45)))
(assert (= "a" (str.at var19 855)))
(assert (= "5" (str.at var35 29)))
(assert (= "F" (str.at var28 787)))
(assert (= "A" (str.at var5 50)))
(assert (= ":" (str.at var1 73)))
(assert (= "O" (str.at var54 967)))
(assert (= "/" (str.at var17 356)))
(assert (= ")" (str.at var50 735)))
(assert (= "#" (str.at var45 495)))
(assert (= "N" (str.at var39 828)))
(assert (= "-" (str.at var51 329)))
(assert (= ")" (str.at var15 330)))
(assert (= "-" (str.at var44 939)))
(assert (= "I" (str.at var43 496)))
(assert (= "@" (str.at var58 415)))
(assert (= "G" (str.at var33 209)))
(assert (= "Q" (str.at var53 97)))
(assert (= "m" (str.at var58 435)))
(assert (= "a" (str.at var38 159)))
(assert (= "T" (str.at var7 63)))
(assert (= """" (str.at var16 582)))
(assert (= "|" (str.at var5 423)))
(assert (= "\\" (str.at var21 156)))
(assert (= "!" (str.at var44 74)))
(assert (= "X" (str.at var31 285)))
(assert (= "&" (str.at var28 221)))
(assert (= "e" (str.at var34 223)))
(assert (= "+" (str.at var3 828)))
(assert (= ")" (str.at var16 973)))
(assert (= "P" (str.at var38 359)))
(assert (= "A" (str.at var19 275)))
(assert (= "}" (str.at var5 665)))
(assert (= "x" (str.at var1 968)))
(assert (= "R" (str.at var31 201)))
(assert (= ")" (str.at var35 404)))
(assert (= "(" (str.at var16 786)))
(assert (= "`" (str.at var11 676)))
(assert (= "[" (str.at var3 889)))
(assert (= "%" (str.at var58 829)))
(assert (= "-" (str.at var47 634)))
(assert (= "0" (str.at var35 767)))
(assert (= "Z" (str.at var54 983)))
(assert (= "2" (str.at var1 26)))
(assert (= "r" (str.at var36 371)))
(assert (= "S" (str.at var5 603)))
(assert (= "W" (str.at var18 454)))
(assert (= "h" (str.at var2 115)))
(assert (= "B" (str.at var52 111)))
(assert (= "F" (str.at var1 442)))
(assert (= "5" (str.at var35 562)))
(assert (= "b" (str.at var53 328)))
(assert (= "f" (str.at var17 185)))
(assert (= "7" (str.at var42 160)))
(assert (= "A" (str.at var54 351)))
(assert (= "k" (str.at var11 48)))
(assert (= "{" (str.at var45 591)))
(assert (= ":" (str.at var48 411)))
(assert (= "^" (str.at var49 954)))
(assert (= "?" (str.at var8 555)))
(assert (= "u" (str.at var47 819)))
(assert (= "C" (str.at var25 770)))
(assert (= "-" (str.at var21 314)))
(assert (= "{" (str.at var30 443)))
(assert (= "[" (str.at var39 188)))
(assert (= "/" (str.at var18 309)))
(assert (= "@" (str.at var54 703)))
(assert (= "." (str.at var10 256)))
(assert (= "N" (str.at var19 47)))
(assert (= "s" (str.at var42 458)))
(assert (= "{" (str.at var22 266)))
(assert (= """" (str.at var11 43)))
(assert (= "T" (str.at var48 905)))
(assert (= "?" (str.at var6 207)))
(assert (= "B" (str.at var8 897)))
(assert (= "X" (str.at var2 832)))
(assert (= "i" (str.at var52 572)))
(assert (= "e" (str.at var60 222)))
(assert (= "-" (str.at var40 415)))
(assert (= ">" (str.at var5 97)))
(assert (= "(" (str.at var57 127)))
(assert (= "s" (str.at var29 835)))
(assert (= "C" (str.at var25 714)))
(assert (= "S" (str.at var10 457)))
(assert (= "3" (str.at var60 898)))
(assert (= "`" (str.at var26 255)))
(assert (= """" (str.at var39 135)))
(assert (= ">" (str.at var8 663)))
(assert (= "p" (str.at var13 499)))
(assert (= "9" (str.at var8 721)))
(assert (= "/" (str.at var17 111)))
(assert (= "2" (str.at var40 998)))
(assert (= "P" (str.at var0 184)))
(assert (= "R" (str.at var4 810)))
(assert (= "(" (str.at var56 791)))
(assert (= "P" (str.at var19 684)))
(assert (= "[" (str.at var10 747)))
(assert (= "K" (str.at var32 331)))
(assert (= "x" (str.at var34 648)))
(assert (= "f" (str.at var18 210)))
(assert (= "e" (str.at var33 439)))
(assert (= "p" (str.at var24 356)))
(assert (= "r" (str.at var11 256)))
(assert (= "P" (str.at var5 814)))
(assert (= "w" (str.at var31 955)))
(assert (= "|" (str.at var4 524)))
(assert (= "a" (str.at var28 800)))
(assert (= "]" (str.at var17 804)))
(assert (= "4" (str.at var1 265)))
(assert (= "1" (str.at var12 775)))
(assert (= "@" (str.at var34 605)))
(assert (= "x" (str.at var32 179)))
(assert (= "j" (str.at var0 211)))
(assert (= "v" (str.at var13 844)))
(assert (= "O" (str.at var6 103)))
(assert (= "'" (str.at var42 439)))
(assert (= "Y" (str.at var49 431)))
(assert (= "1" (str.at var45 14)))
(assert (= "~" (str.at var36 946)))
(assert (= "/" (str.at var10 91)))
(assert (= "Q" (str.at var49 609)))
(assert (= "(" (str.at var37 806)))
(assert (= "G" (str.at var41 661)))
(assert (= "z" (str.at var0 481)))
(assert (= "4" (str.at var17 69)))
(assert (= "F" (str.at var18 957)))
(assert (= "6" (str.at var59 319)))
(assert (= "k" (str.at var6 993)))
(assert (= "'" (str.at var7 22)))
(assert (= "}" (str.at var38 805)))
(assert (= "." (str.at var17 381)))
(assert (= "v" (str.at var56 164)))
(assert (= "Q" (str.at var39 710)))
(assert (= "m" (str.at var40 76)))
(assert (= "@" (str.at var42 921)))
(assert (= "`" (str.at var8 402)))
(assert (= "7" (str.at var44 695)))
(assert (= "*" (str.at var13 850)))
(assert (= "w" (str.at var56 788)))
(assert (= "+" (str.at var41 504)))
(assert (= "\\" (str.at var37 401)))
(assert (= "D" (str.at var46 619)))
(assert (= "3" (str.at var44 155)))
(assert (= "}" (str.at var27 266)))
(assert (= "}" (str.at var49 902)))
(assert (= "3" (str.at var35 131)))
(assert (= "+" (str.at var31 897)))
(assert (= "5" (str.at var13 321)))
(assert (= "E" (str.at var60 957)))
(assert (= "m" (str.at var58 531)))
(assert (= "u" (str.at var18 683)))
(assert (= "j" (str.at var54 992)))
(assert (= "," (str.at var30 872)))
(assert (= "#" (str.at var21 428)))
(assert (= """" (str.at var60 126)))
(assert (= "S" (str.at var44 974)))
(assert (= "|" (str.at var49 891)))
(assert (= "`" (str.at var5 827)))
(assert (= "z" (str.at var55 298)))
(assert (= ";" (str.at var13 62)))
(assert (= "b" (str.at var52 578)))
(assert (= "6" (str.at var12 302)))
(assert (= "4" (str.at var16 29)))
(assert (= "i" (str.at var30 643)))
(assert (= "x" (str.at var22 693)))
(assert (= "R" (str.at var27 50)))
(assert (= "q" (str.at var36 284)))
(assert (= "e" (str.at var9 796)))
(assert (= "k" (str.at var29 367)))
(assert (= "h" (str.at var44 368)))
(assert (= "6" (str.at var23 836)))
(assert (= "." (str.at var23 996)))
(assert (= "w" (str.at var57 663)))
(assert (= "6" (str.at var4 544)))
(assert (= "S" (str.at var52 779)))
(assert (= "-" (str.at var26 136)))
(assert (= "?" (str.at var33 952)))
(assert (= "\\" (str.at var51 591)))
(assert (= "d" (str.at var21 553)))
(assert (= "z" (str.at var29 770)))
(assert (= "<" (str.at var28 951)))
(assert (= "f" (str.at var34 720)))
(assert (= "l" (str.at var53 898)))
(assert (= "." (str.at var10 472)))
(assert (= "d" (str.at var59 849)))
(assert (= "@" (str.at var53 277)))
(assert (= "i" (str.at var32 257)))
(assert (= ")" (str.at var60 93)))
(assert (= "B" (str.at var51 526)))
(assert (= "=" (str.at var59 884)))
(assert (= "j" (str.at var32 606)))
(assert (= "^" (str.at var45 199)))
(assert (= "t" (str.at var28 225)))
(assert (= "Z" (str.at var26 714)))
(assert (= "u" (str.at var17 160)))
(assert (= "E" (str.at var3 721)))
(assert (= "W" (str.at var46 834)))
(assert (= "k" (str.at var29 134)))
(assert (= "i" (str.at var32 961)))
(assert (= "8" (str.at var34 112)))
(assert (= "+" (str.at var41 609)))
(assert (= "z" (str.at var58 444)))
(assert (= "n" (str.at var11 417)))
(assert (= "0" (str.at var43 234)))
(assert (= "0" (str.at var27 428)))
(assert (= "z" (str.at var27 895)))
(assert (= "F" (str.at var3 110)))
(assert (= "2" (str.at var44 662)))
(assert (= "\\" (str.at var23 447)))
(assert (= "a" (str.at var35 771)))
(assert (= ":" (str.at var4 219)))
(assert (= "=" (str.at var13 778)))
(assert (= "," (str.at var53 392)))
(assert (= ">" (str.at var23 725)))
(assert (= "e" (str.at var47 972)))
(assert (= "e" (str.at var8 34)))
(assert (= "}" (str.at var32 212)))
(assert (= "C" (str.at var55 782)))
(assert (= "x" (str.at var38 551)))
(assert (= "h" (str.at var44 966)))
(assert (= "6" (str.at var56 20)))
(assert (= "N" (str.at var10 691)))
(assert (= "d" (str.at var29 221)))
(assert (= "m" (str.at var55 807)))
(assert (= "l" (str.at var0 963)))
(assert (= "]" (str.at var58 894)))
(assert (= "D" (str.at var42 99)))
(assert (= "C" (str.at var3 500)))
(assert (= "T" (str.at var13 690)))
(assert (= "." (str.at var50 894)))
(assert (= "J" (str.at var40 636)))
(assert (= ":" (str.at var25 875)))
(assert (= "h" (str.at var46 962)))
(assert (= "R" (str.at var44 341)))
(assert (= ">" (str.at var46 582)))
(assert (= "." (str.at var19 390)))
(assert (= ";" (str.at var20 431)))
(assert (= "y" (str.at var9 190)))
(assert (= "x" (str.at var42 868)))
(assert (= "\\" (str.at var59 941)))
(assert (= "-" (str.at var44 580)))
(assert (= "-" (str.at var34 309)))
(assert (= "O" (str.at var59 925)))
(assert (= "Z" (str.at var47 265)))
(assert (= "t" (str.at var2 788)))
(assert (= "r" (str.at var50 913)))
(assert (= "'" (str.at var28 499)))
(assert (= "T" (str.at var15 436)))
(assert (= "*" (str.at var17 676)))
(assert (= "D" (str.at var30 812)))
(assert (= "H" (str.at var17 187)))
(assert (= "z" (str.at var16 628)))
(assert (= "/" (str.at var3 57)))
(assert (= "q" (str.at var21 760)))
(assert (= "k" (str.at var25 760)))
(assert (= "B" (str.at var13 219)))
(assert (= "L" (str.at var20 573)))
(assert (= "v" (str.at var16 492)))
(assert (= "9" (str.at var1 850)))
(assert (= "0" (str.at var47 978)))
(assert (= "4" (str.at var56 159)))
(assert (= "j" (str.at var39 175)))
(assert (= "E" (str.at var43 686)))
(assert (= "n" (str.at var16 953)))
(assert (= "'" (str.at var0 500)))
(assert (= "\\" (str.at var17 722)))
(assert (= "/" (str.at var59 688)))
(assert (= "V" (str.at var45 633)))
(assert (= ";" (str.at var9 645)))
(assert (= "&" (str.at var53 843)))
(assert (= "s" (str.at var28 722)))
(assert (= "o" (str.at var50 367)))
(assert (= "3" (str.at var50 368)))
(assert (= "X" (str.at var28 587)))
(assert (= "0" (str.at var15 240)))
(assert (= "B" (str.at var15 48)))
(assert (= "i" (str.at var47 771)))
(assert (= "P" (str.at var20 385)))
(assert (= "2" (str.at var7 553)))
(assert (= "w" (str.at var6 225)))
(assert (= "b" (str.at var39 160)))
(assert (= "_" (str.at var46 784)))
(assert (= "7" (str.at var29 70)))
(assert (= "N" (str.at var0 980)))
(assert (= "D" (str.at var42 882)))
(assert (= "W" (str.at var1 707)))
(assert (= "{" (str.at var58 696)))
(assert (= "u" (str.at var48 400)))
(assert (= "3" (str.at var49 652)))
(assert (= "1" (str.at var29 698)))
(assert (= "(" (str.at var5 186)))
(assert (= "K" (str.at var34 886)))
(assert (= "P" (str.at var28 32)))
(assert (= "P" (str.at var31 782)))
(assert (= "B" (str.at var9 959)))
(assert (= "8" (str.at var43 742)))
(assert (= "Y" (str.at var57 693)))
(assert (= "`" (str.at var0 287)))
(assert (= "x" (str.at var51 169)))
(assert (= "2" (str.at var4 780)))
(assert (= "J" (str.at var6 695)))
(check-sat)
(get-model)